Traveling Salesman Problem/TSP_generados/Aleatorio1620391149_14.tsp
NAME: Aleatorio1620391149_14.tsp
COMMENT: Randomly generated scenario
TYPE: TSP
DIMENSION: 14
EDGE_WEIGHT_TYPE: ATT
NODE_COORD_SECTION
1 5.77 13.16
2 41.3 14.99
3 2.98 15.62
4 35.74 45.64
5 23.02 37.65
6 15.45 40.19
7 19.43 21.73
8 0.69 34.25
9 16.66 36.06
10 36.19 26.84
11 4.92 3.75
12 10.08 16.19
13 20.14 17.57
14 43.55 23.65
