Traveling Salesman Problem/TSP_generados/Aleatorio1620391149_14.opt.tour
NAME: Aleatorio1620391149_14.opt.tour
COMMENT: Optimal solution for Aleatorio1620391149_14 (159.37626884075868)
TYPE: TOUR
DIMENSION: 14
TOUR_SECTION
1 11 12 7 13 2 14 10 4 5 9 6 8 3
-1
EOF
